c description: Perfect Matching Principle on 
c generator: CNFgen (0.9.0)
c copyright: (C) 2012-2020 Massimo Lauria <massimo.lauria@uniroma1.it>
c url: https://massimolauria.net/cnfgen
c
p cnf 60 287
-1 -2 0
-1 -3 0
-1 -4 0
-1 -5 0
-1 -6 0
-1 -7 0
-1 -8 0
-2 -3 0
-2 -4 0
-2 -5 0
-2 -6 0
-2 -7 0
-2 -8 0
-3 -4 0
-3 -5 0
-3 -6 0
-3 -7 0
-3 -8 0
-4 -5 0
-4 -6 0
-4 -7 0
-4 -8 0
-5 -6 0
-5 -7 0
-5 -8 0
-6 -7 0
-6 -8 0
-7 -8 0
1 2 3 4 5 6 7 8 0
-1 -9 0
-1 -10 0
-1 -11 0
-1 -12 0
-1 -13 0
-1 -14 0
-9 -10 0
-9 -11 0
-9 -12 0
-9 -13 0
-9 -14 0
-10 -11 0
-10 -12 0
-10 -13 0
-10 -14 0
-11 -12 0
-11 -13 0
-11 -14 0
-12 -13 0
-12 -14 0
-13 -14 0
1 9 10 11 12 13 14 0
-2 -15 0
-2 -16 0
-2 -17 0
-15 -16 0
-15 -17 0
-16 -17 0
2 15 16 17 0
-18 -19 0
-18 -20 0
-18 -21 0
-19 -20 0
-19 -21 0
-20 -21 0
18 19 20 21 0
-22 -23 0
-22 -24 0
-22 -25 0
-22 -26 0
-22 -27 0
-23 -24 0
-23 -25 0
-23 -26 0
-23 -27 0
-24 -25 0
-24 -26 0
-24 -27 0
-25 -26 0
-25 -27 0
-26 -27 0
22 23 24 25 26 27 0
-9 -22 0
-9 -28 0
-9 -29 0
-9 -30 0
-22 -28 0
-22 -29 0
-22 -30 0
-28 -29 0
-28 -30 0
-29 -30 0
9 22 28 29 30 0
-31 -32 0
-31 -33 0
-31 -34 0
-32 -33 0
-32 -34 0
-33 -34 0
31 32 33 34 0
-3 -10 0
-3 -23 0
-3 -35 0
-3 -36 0
-3 -37 0
-3 -38 0
-3 -39 0
-3 -40 0
-3 -41 0
-10 -23 0
-10 -35 0
-10 -36 0
-10 -37 0
-10 -38 0
-10 -39 0
-10 -40 0
-10 -41 0
-23 -35 0
-23 -36 0
-23 -37 0
-23 -38 0
-23 -39 0
-23 -40 0
-23 -41 0
-35 -36 0
-35 -37 0
-35 -38 0
-35 -39 0
-35 -40 0
-35 -41 0
-36 -37 0
-36 -38 0
-36 -39 0
-36 -40 0
-36 -41 0
-37 -38 0
-37 -39 0
-37 -40 0
-37 -41 0
-38 -39 0
-38 -40 0
-38 -41 0
-39 -40 0
-39 -41 0
-40 -41 0
3 10 23 35 36 37 38 39 40 41 0
-18 -42 0
18 42 0
-15 -24 0
-15 -31 0
-15 -35 0
-15 -43 0
-15 -44 0
-24 -31 0
-24 -35 0
-24 -43 0
-24 -44 0
-31 -35 0
-31 -43 0
-31 -44 0
-35 -43 0
-35 -44 0
-43 -44 0
15 24 31 35 43 44 0
-36 -45 0
-36 -46 0
-45 -46 0
36 45 46 0
-28 -47 0
-28 -48 0
-28 -49 0
-47 -48 0
-47 -49 0
-48 -49 0
28 47 48 49 0
25 0
11 0
-4 -32 0
-4 -37 0
-4 -50 0
-32 -37 0
-32 -50 0
-37 -50 0
4 32 37 50 0
-5 -26 0
-5 -38 0
-5 -51 0
-26 -38 0
-26 -51 0
-38 -51 0
5 26 38 51 0
-12 -19 0
-12 -47 0
-12 -52 0
-19 -47 0
-19 -52 0
-47 -52 0
12 19 47 52 0
-6 -39 0
-6 -43 0
-6 -53 0
-39 -43 0
-39 -53 0
-43 -53 0
6 39 43 53 0
-44 -45 0
-44 -54 0
-44 -55 0
-45 -54 0
-45 -55 0
-54 -55 0
44 45 54 55 0
-40 -48 0
40 48 0
-13 -16 0
-13 -54 0
-13 -56 0
-13 -57 0
-16 -54 0
-16 -56 0
-16 -57 0
-54 -56 0
-54 -57 0
-56 -57 0
13 16 54 56 57 0
-29 -58 0
29 58 0
-17 -59 0
-17 -60 0
-59 -60 0
17 59 60 0
-20 -27 0
-20 -33 0
-27 -33 0
20 27 33 0
-30 -55 0
30 55 0
-21 -41 0
-21 -42 0
-21 -46 0
-21 -50 0
-21 -51 0
-21 -52 0
-21 -53 0
-21 -59 0
-41 -42 0
-41 -46 0
-41 -50 0
-41 -51 0
-41 -52 0
-41 -53 0
-41 -59 0
-42 -46 0
-42 -50 0
-42 -51 0
-42 -52 0
-42 -53 0
-42 -59 0
-46 -50 0
-46 -51 0
-46 -52 0
-46 -53 0
-46 -59 0
-50 -51 0
-50 -52 0
-50 -53 0
-50 -59 0
-51 -52 0
-51 -53 0
-51 -59 0
-52 -53 0
-52 -59 0
-53 -59 0
21 41 42 46 50 51 52 53 59 0
0
-56 -60 0
56 60 0
-7 -57 0
-7 -58 0
-57 -58 0
7 57 58 0
-8 -14 0
-8 -34 0
-8 -49 0
-14 -34 0
-14 -49 0
-34 -49 0
8 14 34 49 0